objective value:                 0.000856600857000118
x_1_2                                               1 	(obj:0)
x_2_1                                               1 	(obj:0)
x_3_2                                               1 	(obj:0)
x_4_3                                               1 	(obj:0)
x_5_3                                               1 	(obj:0)
x_6_1                                               1 	(obj:0)
x_7_1                                               1 	(obj:0)
x_8_2                                               1 	(obj:0)
x_9_3                                               1 	(obj:0)
x_10_3                                              1 	(obj:0)
x_11_2                                              1 	(obj:0)
x_12_2                                              1 	(obj:0)
x_13_1                                              1 	(obj:0)
x_14_1                                              1 	(obj:0)
x_15_3                                              1 	(obj:0)
x_16_2                                              1 	(obj:0)
x_17_1                                              1 	(obj:0)
x_18_1                                              1 	(obj:0)
x_19_2                                              1 	(obj:0)
x_20_2                                              1 	(obj:0)
ind_1                                               1 	(obj:0)
abs_1_2                                             1 	(obj:0)
ind_2                                               1 	(obj:0)
abs_2_3                                             1 	(obj:0)
ind_3                                               1 	(obj:0)
abs_3_1                                             1 	(obj:0)
epsI                             0.000856600857000118 	(obj:1)
prodt_x_19_2_t_x_20_2_coh_2                         1 	(obj:0)
prodt_x_1_2_t_x_2_1_more_coh_1            0.123223134 	(obj:0)
prodt_x_2_1_t_x_3_1_more_coh_1           6.0928761115 	(obj:0)
prodt_x_6_1_t_x_7_1_more_coh_1           4.3817305075 	(obj:0)
prodt_x_7_1_t_x_9_1_more_coh_1           3.7866731482 	(obj:0)
prodt_x_13_1_t_x_15_1_more_coh_1         3.5911551965 	(obj:0)
prodt_x_14_1_t_x_15_1_more_coh_1    0.765606345199999 	(obj:0)
prodt_x_17_1_t_x_18_1_more_coh_1         1.1880842908 	(obj:0)
prodt_x_1_2_t_x_2_2_more_coh_2           3.8644681936 	(obj:0)
prodt_x_3_2_t_x_4_2_more_coh_2           3.1884851811 	(obj:0)
prodt_x_8_2_t_x_11_2_more_coh_2          3.4223662301 	(obj:0)
prodt_x_11_2_t_x_12_2_more_coh_2         2.4241541603 	(obj:0)
prodt_x_12_2_t_x_13_2_more_coh_2         2.5112544394 	(obj:0)
prodt_x_16_2_t_x_17_2_more_coh_2         1.0748936324 	(obj:0)
prodt_x_4_3_t_x_5_3_more_coh_3          2.95990186155 	(obj:0)
prodt_x_5_3_t_x_6_3_more_coh_3            2.681293299 	(obj:0)
prodt_x_9_3_t_x_14_3_more_coh_3          2.2897444386 	(obj:0)
prodt_x_10_3_t_x_11_3_more_coh_3         1.8606149016 	(obj:0)
prodt_x_1_2_t_x_2_2_more_irrev1_2_1     2.65904437774073 	(obj:0)
prodt_x_2_1_t_x_4_2_more_irrev1_2_1     0.61907583099171 	(obj:0)
prodt_x_3_2_t_x_4_1_more_irrev1_2_1     3.51894935318105 	(obj:0)
prodt_x_6_1_t_x_7_2_more_irrev1_2_1     3.57708598232595 	(obj:0)
prodt_x_7_1_t_x_8_2_more_irrev1_2_1           0.35779824 	(obj:0)
prodt_x_8_2_t_x_9_1_more_irrev1_2_1     1.33667019585007 	(obj:0)
prodt_x_11_2_t_x_13_1_more_irrev1_2_1     2.84036333126211 	(obj:0)
prodt_x_12_2_t_x_13_1_more_irrev1_2_1           0.30985843 	(obj:0)
prodt_x_13_1_t_x_14_2_more_irrev1_2_1    0.853437035431975 	(obj:0)
prodt_x_14_1_t_x_16_2_more_irrev1_2_1     2.20481831873288 	(obj:0)
prodt_x_16_2_t_x_19_1_more_irrev1_2_1    0.576331103887335 	(obj:0)
prodt_x_17_1_t_x_20_2_more_irrev1_2_1    0.138965438436245 	(obj:0)
prodt_x_18_1_t_x_19_2_more_irrev1_2_1     1.74696438987656 	(obj:0)
prodt_x_1_2_t_x_2_2_more_irrev2_2_1    -2.65904437774073 	(obj:0)
prodt_x_2_1_t_x_4_2_more_irrev2_2_1   -0.619075830991711 	(obj:0)
prodt_x_3_2_t_x_4_1_more_irrev2_2_1    -3.51894935318105 	(obj:0)
prodt_x_6_1_t_x_7_2_more_irrev2_2_1    -3.57708598232595 	(obj:0)
prodt_x_7_1_t_x_8_2_more_irrev2_2_1          -0.35779824 	(obj:0)
prodt_x_8_2_t_x_9_1_more_irrev2_2_1    -1.33667019585007 	(obj:0)
prodt_x_11_2_t_x_13_1_more_irrev2_2_1    -2.84036333126211 	(obj:0)
prodt_x_12_2_t_x_13_1_more_irrev2_2_1          -0.30985843 	(obj:0)
prodt_x_13_1_t_x_14_2_more_irrev2_2_1   -0.853437035431975 	(obj:0)
prodt_x_14_1_t_x_16_2_more_irrev2_2_1    -2.20481831873288 	(obj:0)
prodt_x_16_2_t_x_19_1_more_irrev2_2_1   -0.576331103887335 	(obj:0)
prodt_x_17_1_t_x_20_2_more_irrev2_2_1   -0.138965438436245 	(obj:0)
prodt_x_18_1_t_x_19_2_more_irrev2_2_1     1.74696438987656 	(obj:0)
prodt_x_1_2_t_x_2_3_more_irrev1_3_1    -2.65833791543624 	(obj:0)
prodt_x_2_1_t_x_4_3_more_irrev1_3_1    -2.35727096019078 	(obj:0)
prodt_x_4_3_t_x_7_1_more_irrev1_3_1          -2.21424582 	(obj:0)
prodt_x_5_3_t_x_7_1_more_irrev1_3_1   -0.665239283662902 	(obj:0)
prodt_x_6_1_t_x_7_3_more_irrev1_3_1   -0.930832610290439 	(obj:0)
prodt_x_7_1_t_x_8_3_more_irrev1_3_1    -1.58482112000001 	(obj:0)
prodt_x_9_3_t_x_11_1_more_irrev1_3_1   -0.779892242248651 	(obj:0)
prodt_x_10_3_t_x_12_1_more_irrev1_3_1    -2.44501734002071 	(obj:0)
prodt_x_13_1_t_x_14_3_more_irrev1_3_1                   -1 	(obj:0)
prodt_x_14_1_t_x_16_3_more_irrev1_3_1  -0.0408951525476238 	(obj:0)
prodt_x_15_3_t_x_16_1_more_irrev1_3_1    -1.43089467727496 	(obj:0)
prodt_x_1_2_t_x_2_3_more_irrev2_3_1     2.65833791543622 	(obj:0)
prodt_x_2_1_t_x_4_3_more_irrev2_3_1     2.35727096019078 	(obj:0)
prodt_x_4_3_t_x_7_1_more_irrev2_3_1           2.21424582 	(obj:0)
prodt_x_5_3_t_x_7_1_more_irrev2_3_1    0.665239283662902 	(obj:0)
prodt_x_6_1_t_x_7_3_more_irrev2_3_1    0.930832610290439 	(obj:0)
prodt_x_7_1_t_x_8_3_more_irrev2_3_1     1.58482112000001 	(obj:0)
prodt_x_9_3_t_x_11_1_more_irrev2_3_1    0.779892242248651 	(obj:0)
prodt_x_10_3_t_x_12_1_more_irrev2_3_1     2.44501734002071 	(obj:0)
prodt_x_13_1_t_x_14_3_more_irrev2_3_1                    1 	(obj:0)
prodt_x_14_1_t_x_16_3_more_irrev2_3_1   0.0408951525476238 	(obj:0)
prodt_x_15_3_t_x_16_1_more_irrev2_3_1     1.43089467727496 	(obj:0)
prodt_x_1_2_t_x_2_3_more_irrev1_3_2     2.65833791543622 	(obj:0)
prodt_x_3_2_t_x_4_3_more_irrev1_3_2    0.328432288712471 	(obj:0)
prodt_x_4_3_t_x_7_2_more_irrev1_3_2     1.12425518999999 	(obj:0)
prodt_x_5_3_t_x_7_2_more_irrev1_3_2     2.90213276533252 	(obj:0)
prodt_x_8_2_t_x_9_3_more_irrev1_3_2     1.75247148469173 	(obj:0)
prodt_x_9_3_t_x_11_2_more_irrev1_3_2     2.80236721279743 	(obj:0)
prodt_x_10_3_t_x_12_2_more_irrev1_3_2    0.794510851044197 	(obj:0)
prodt_x_11_2_t_x_13_3_more_irrev1_3_2    0.184409727122403 	(obj:0)
prodt_x_12_2_t_x_14_3_more_irrev1_3_2    0.747843839999998 	(obj:0)
prodt_x_15_3_t_x_16_2_more_irrev1_3_2     1.65970874222533 	(obj:0)
prodt_x_1_2_t_x_2_3_more_irrev2_3_2    -2.65833791543622 	(obj:0)
prodt_x_3_2_t_x_4_3_more_irrev2_3_2   -0.328432288712471 	(obj:0)
prodt_x_4_3_t_x_7_2_more_irrev2_3_2    -1.12425518999999 	(obj:0)
prodt_x_5_3_t_x_7_2_more_irrev2_3_2    -2.90213276533252 	(obj:0)
prodt_x_8_2_t_x_9_3_more_irrev2_3_2    -1.75247148469173 	(obj:0)
prodt_x_9_3_t_x_11_2_more_irrev2_3_2    -2.80236721279743 	(obj:0)
prodt_x_10_3_t_x_12_2_more_irrev2_3_2   -0.794510851044196 	(obj:0)
prodt_x_11_2_t_x_13_3_more_irrev2_3_2   -0.184409727122403 	(obj:0)
prodt_x_12_2_t_x_14_3_more_irrev2_3_2   -0.747843839999998 	(obj:0)
prodt_x_15_3_t_x_16_2_more_irrev2_3_2    -1.65970874222533 	(obj:0)
SCIP Status        : solving was interrupted [time limit reached]
Total Time         :    3600.00
  solving          :    3600.00
  presolving       :       0.05 (included in solving)
  reading          :       0.00
  copying          :       1.06 (125 #copies) (minimal 0.00, maximal 0.02, average 0.01)
Original Problem   :
  Problem name     : ../instances/Pot4/Pot4_T_20B_alpha=6.txt.spa
  Variables        : 101 (100 binary, 0 integer, 0 implicit integer, 1 continuous)
  Constraints      : 193 initial, 193 maximal
  Objective sense  : maximize
Presolved Problem  :
  Problem name     : t_../instances/Pot4/Pot4_T_20B_alpha=6.txt.spa
  Variables        : 590 (92 binary, 0 integer, 16 implicit integer, 482 continuous)
  Constraints      : 2015 initial, 5769 maximal
Presolvers         :   ExecTime  SetupTime  Calls  FixedVars   AggrVars   ChgTypes  ChgBounds   AddHoles    DelCons    AddCons   ChgSides   ChgCoefs
  boundshift       :       0.00       0.00      0          0          0          0          0          0          0          0          0          0
  components       :       0.00       0.00      1          0          0          0          0          0          0          0          0          0
  convertinttobin  :       0.00       0.00      0          0          0          0          0          0          0          0          0          0
  domcol           :       0.00       0.00      1          0          0          0          0          0          0          0          0          0
  dualagg          :       0.00       0.00      0          0          0          0          0          0          0          0          0          0
  dualinfer        :       0.00       0.00      0          0          0          0          0          0          0          0          0          0
  gateextraction   :       0.00       0.00      3          0          0          0          0          0        108         34          0          0
  implfree         :       0.00       0.00      0          0          0          0          0          0          0          0          0          0
  implics          :       0.00       0.00      4          0          0          0          0          0          0          0          0          0
  inttobinary      :       0.00       0.00      0          0          0          0          0          0          0          0          0          0
  redvub           :       0.00       0.00      0          0          0          0          0          0          0          0          0          0
  stuffing         :       0.00       0.00      1          0          0          0          0          0          0          0          0          0
  trivial          :       0.00       0.00      7          0          0          0          0          0          0          0          0          0
  tworowbnd        :       0.00       0.00      0          0          0          0          0          0          0          0          0          0
  dualfix          :       0.00       0.00      7          4          0          0          0          0          0          0          0          0
  genvbounds       :       0.00       0.00      0          0          0          0          0          0          0          0          0          0
  probing          :       0.03       0.00      1          0          0          0          4          0          0          0          0          0
  pseudoobj        :       0.00       0.00      0          0          0          0          0          0          0          0          0          0
  varbound         :       0.00       0.00      9          0          0          0          0          0         28         28          0          0
  setppc           :       0.00       0.00     12          0          0          0          0          0          0          0          0          0
  and              :       0.00       0.00      4          0         12          0          0          0         12          0          0          0
  linear           :       0.01       0.00      9          3          1          0          4          0          7          0         12         12
  logicor          :       0.00       0.00      7          0          0          0          0          0          0          0          0          0
  bounddisjunction :       0.00       0.00      0          0          0          0          0          0          0          0          0          0
  quadratic        :       0.01       0.00      2          0          0          0          0          0          0       1915          0          0
  root node        :          -          -      -          1          -          -         84          -          -          -          -          -
Constraints        :     Number  MaxNumber  #Separate #Propagate    #EnfoLP    #EnfoPS     #Check   #ResProp    Cutoffs    DomReds       Cuts    Applied      Conss   Children
  integral         :          0          0          0          0    1868890          0     424840          0          0      40875          0          0        238    3708520
  varbound         :        869        869         86   11785332      10543          0     165265    3797625      54984   94104341          6          6          0          0
  setppc           :        110+       203         86   11730168      10536          0       1579    2065759      10211    5772671         11          1          0          0
  and              :         22         22     368056    2107280       3273          0        995     309078         27     329370       1493       1474          0          0
  linear           :        979        979         86   11720115       7095          0        840    1626407     186033  124288353     371895     371652          0          0
  logicor          :         35+      1150         85    3768190          0          0          0     144747       3376     535367          2          2          0          0
  bounddisjunction :          0+      2610          0    5272626          0          0          0     699234       5053    7778052          0          0          0          0
  countsols        :          0          0          0          0          5          0     259254          0          0          0          0          0          0          0
Constraint Timings :  TotalTime  SetupTime   Separate  Propagate     EnfoLP     EnfoPS      Check    ResProp    SB-Prop
  integral         :      19.90       0.00       0.00       0.00      19.84       0.00       0.06       0.00       0.00
  varbound         :      65.04       0.00       0.00      63.41       0.06       0.00       0.79       0.60       0.18
  setppc           :      42.48       0.00       0.00      41.99       0.01       0.00       0.02       0.35       0.11
  and              :       0.85       0.00       0.14       0.59       0.01       0.00       0.00       0.10       0.01
  linear           :     187.67       0.00       0.01     185.89       0.25       0.00       0.01       1.14       0.37
  logicor          :      21.12       0.00       0.00      21.06       0.00       0.00       0.00       0.05       0.01
  bounddisjunction :      93.23       0.00       0.00      93.09       0.00       0.00       0.00       0.11       0.03
  countsols        :       0.00       0.00       0.00       0.00       0.00       0.00       0.00       0.00       0.00
Propagators        : #Propagate   #ResProp    Cutoffs    DomReds
  dualfix          :          2          0          0          0
  genvbounds       :          0          0          0          0
  obbt             :          0          0          0          0
  probing          :          0          0          0          0
  pseudoobj        :   12417586          0       1919         82
  redcost          :    4246551          0        618    1049088
  rootredcost      :          6          0          0          1
  vbounds          :   13653268       7390         15     165407
Propagator Timings :  TotalTime  SetupTime   Presolve  Propagate    ResProp    SB-Prop
  dualfix          :       0.00       0.00       0.00       0.00       0.00       0.00
  genvbounds       :       1.98       0.00       0.00       1.98       0.00       0.00
  obbt             :       0.00       0.00       0.00       0.00       0.00       0.00
  probing          :       0.03       0.00       0.03       0.00       0.00       0.00
  pseudoobj        :       3.28       0.00       0.00       3.28       0.00       0.00
  redcost          :      29.76       0.00       0.00      29.76       0.00       0.00
  rootredcost      :       1.96       0.00       0.00       1.95       0.00       0.01
  vbounds          :       4.10       0.00       0.00       4.09       0.00       0.01
Conflict Analysis  :       Time      Calls    Success    DomReds  Conflicts   Literals    Reconvs ReconvLits   LP Iters
  propagation      :       3.54      77848      75531          -     708488       35.9       4965       43.8          -
  infeasible LP    :      13.78     107706     103178          -    1564549       35.7        205       14.6          0
  bound exceed. LP :       0.00          0          0          -          0        0.0          0        0.0          0
  strong branching :       0.00          0          0          -          0        0.0          0        0.0          0
  pseudo solution  :       0.00          0          0          -          0        0.0          0        0.0          -
  applied globally :       3.31          -          -          0     320896       19.9          -          -          -
  applied locally  :          -          -          -          0       3013       35.1          -          -          -
Separators         :   ExecTime  SetupTime      Calls    Cutoffs    DomReds       Cuts    Applied      Conss
  cut pool         :       0.00                    85          -          -       1328          -          -    (maximal pool size: 913)
  cgmip            :       0.00       0.00          0          0          0          0          0          0
  clique           :       0.00       0.00         86          0          0         42         29          0
  closecuts        :       0.00       0.00          0          0          0          0          0          0
  cmir             :       0.04       0.00         10          0          0        330        194          0
  disjunctive      :       0.00       0.00          0          0          0          0          0          0
  eccuts           :       0.00       0.00          0          0          0          0          0          0
  flowcover        :       0.12       0.00         15          0          0        255         16          0
  gomory           :       0.03       0.00         10          0          0          2          2          0
  impliedbounds    :       0.00       0.00         86          0          0        781        147          0
  intobj           :       0.00       0.00          0          0          0          0          0          0
  mcf              :       0.00       0.00          1          0          0          0          0          0
  oddcycle         :       0.00       0.00          0          0          0          0          0          0
  rapidlearning    :       0.00       0.00          0          0          0          0          0          0
  strongcg         :       0.03       0.00         20          0          0         47          6          0
  zerohalf         :       0.00       0.00          0          0          0          0          0          0
Pricers            :   ExecTime  SetupTime      Calls       Vars
  problem variables:       0.00          -          0          0
Branching Rules    :   ExecTime  SetupTime   BranchLP  BranchExt   BranchPS    Cutoffs    DomReds       Cuts      Conss   Children
  allfullstrong    :       0.00       0.00          0          0          0          0          0          0          0          0
  cloud            :       0.00       0.00          0          0          0          0          0          0          0          0
  distribution     :       0.00       0.00          0          0          0          0          0          0          0          0
  fullstrong       :       0.00       0.00          0          0          0          0          0          0          0          0
  inference        :       0.00       0.00          0          0          0          0          0          0          0          0
  leastinf         :       0.00       0.00          0          0          0          0          0          0          0          0
  mostinf          :       0.00       0.00          0          0          0          0          0          0          0          0
  multaggr         :       0.00       0.00          0          0          0          0          0          0          0          0
  nodereopt        :       0.00       0.00          0          0          0          0          0          0          0          0
  pscost           :       0.00       0.00          0          0          0          0          0          0          0          0
  random           :       0.00       0.00          0          0          0          0          0          0          0          0
  relpscost        :      19.02       0.00    1858347          0          0          0      40875          0       -298    3708520
Primal Heuristics  :   ExecTime  SetupTime      Calls      Found       Best
  LP solutions     :       0.00          -          -          5          -
  pseudo solutions :       0.00          -          -          0          -
  strong branching :       0.01          -          -          0          -
  SpaGreedy        :     302.46       0.00     259253          2          1
  actconsdiving    :       0.00       0.00          0          0          0
  bound            :       0.00       0.00          0          0          0
  clique           :       0.00       0.00          0          0          0
  coefdiving       :      29.53       0.00       8630          0          0
  crossover        :       0.91       0.00          1          0          0
  dins             :       0.00       0.00          0          0          0
  distributiondivin:      55.35       0.00       8629          0          0
  dualval          :       0.00       0.00          0          0          0
  feaspump         :      21.55       0.00       1965          0          0
  fixandinfer      :       0.00       0.00          0          0          0
  fracdiving       :      29.82       0.00       8630          0          0
  guideddiving     :      30.91       0.00       8629          0          0
  indicator        :       0.41       0.00          0          0          0
  intdiving        :       0.00       0.00          0          0          0
  intshifting      :       0.61       0.00        204          0          0
  linesearchdiving :      30.22       0.00       8630          0          0
  localbranching   :       0.00       0.00          0          0          0
  mutation         :       0.00       0.00          0          0          0
  nlpdiving        :       0.08       0.00          0          0          0
  objpscostdiving  :      20.72       0.00       2389          0          0
  octane           :       0.00       0.00          0          0          0
  ofins            :       0.00       0.00          0          0          0
  oneopt           :       0.54       0.00          5          0          0
  proximity        :       0.00       0.00          0          0          0
  pscostdiving     :      28.47       0.00       8630          0          0
  randrounding     :       1.73       0.00     164413          0          0
  rens             :       0.15       0.00          1          0          0
  reoptsols        :       0.00       0.00          0          0          0
  rins             :       3.66       0.00         96          0          0
  rootsoldiving    :      22.39       0.00       3149          0          0
  rounding         :       0.68       0.00      19119          0          0
  shiftandpropagate:       0.00       0.00          0          0          0
  shifting         :       1.77       0.00       5708          0          0
  simplerounding   :       0.50       0.00          0          0          0
  subnlp           :       0.55       0.00          0          0          0
  trivial          :       0.00       0.00          2          0          0
  trivialnegation  :       0.00       0.00          0          0          0
  trysol           :       0.67       0.00          0          0          0
  twoopt           :       0.00       0.00          0          0          0
  undercover       :       0.00       0.00          1          0          0
  vbounds          :       0.00       0.00          0          0          0
  veclendiving     :      31.23       0.00       8630          0          0
  zeroobj          :       0.00       0.00          0          0          0
  zirounding       :       0.46       0.00       1000          0          0
  other solutions  :          -          -          -          0          -
Diving Statistics  :      Calls      Nodes   LP Iters Backtracks   MinDepth   MaxDepth   AvgDepth  NLeafSols  MinSolDpt  MaxSolDpt  AvgSolDpt
  actconsdiving    :          0          -          -          -          -          -          -          -          -          -          -
  coefdiving       :       8630      64668     651489      12049         17         40       27.5          -          -          -          -
  distributiondivin:       8629      54391     685776      11787         16         41       26.3          -          -          -          -
  fracdiving       :       8630      64287     746982      13475         17         52       27.2          -          -          -          -
  guideddiving     :       8629      74178     813579      11745         19         53       29.0          -          -          -          -
  linesearchdiving :       8630      55059     725983      13942         16         39       26.2          -          -          -          -
  pscostdiving     :       8630      72107     674727      10944         16         52       28.4          -          -          -          -
  veclendiving     :       8630      59971     697655      15120         18         37       26.6          -          -          -          -
LP                 :       Time      Calls Iterations  Iter/call   Iter/sec  Time-0-It Calls-0-It
  primal LP        :       0.00         14          0       0.00          -       0.00         14
  dual LP          :    1596.71    4029154   64486023      19.50   40386.81      73.57     721487
  lex dual LP      :       0.00          0          0       0.00          -
  barrier LP       :       0.00          0          0       0.00          -       0.00          0
  diving/probing LP:     185.72     257562    7045286      27.35   37934.99
  strong branching :       7.65       7058     253475      35.91   33133.99
    (at root node) :          -         20       1211      60.55          -
  conflict analysis:       0.00          0          0       0.00          -
B&B Tree           :
  number of runs   :          1
  nodes            :    3608800 (1854260 internal, 1754540 leaves)
  nodes (total)    :    3608800 (1854260 internal, 1754540 leaves)
  nodes left       :      91524
  max depth        :         36
  max depth (total):         36
  backtracks       :    1016352 (28.2%)
  delayed cutoffs  :       8086
  repropagations   :     128986 (3874477 domain reductions, 6769 cutoffs)
  avg switch length:       6.62
  switching time   :     527.65
Root Node          :
  First LP value   : +3.00000000000000e+00
  First LP Iters   :        375 (37500.00 Iter/sec)
  First LP Time    :       0.01
  Final Dual Bound : +7.05325623049629e-03
  Final Root Iters :       3064
Solution           :
  Solutions found  :          7 (6 improvements)
  First Solution   : +7.76804529000030e-04   (in run 1, after 1 nodes, 0.05 seconds, depth 0, found by <SpaGreedy>)
  Gap First Sol.   :   infinite
  Gap Last Sol.    :      62.42 %
  Primal Bound     : +8.56600857000118e-04   (in run 1, after 428914 nodes, 389.72 seconds, depth 31, found by <relaxation>)
  Dual Bound       : +1.12634345010491e-03
  Gap              :      31.49 %
  Avg. Gap         :      41.77 % (150373.62 primal-dual integral)
